c parsing input formula with 6 variables and 64 clauses
c finished parsing
c detected empty clause; start verification via backward checking
c 64 of 64 clauses in core                            
c 32 of 38 lemmas in core using 121 resolution steps
c 0 RAT lemmas in core; 26 redundant literals in core lemmas
s VERIFIED
c verification time: 0.072 seconds
